164	32	4	47	
15	18	11	14

0	0	0	0	0	0	3	1	2	3
1	0	0	10	0	1	3	4	19	23
2	0	0	0	5	5	3	10	13	23
3	0	0	0	3	7	3	5	6	7
4	0	0	9	0	6	2	8	13
5	0	0	0	7	2	2	8	11
6	0	2	0	0	9	1	8
7	0	2	0	0	4	3	9	14	20
8	9	0	0	0	9	2	12	18
9	0	0	0	2	7	3	11	16	17
10	0	0	0	8	3	3	14	15	21
11	0	0	0	1	10	1	30
12	0	0	8	0	6	2	14	28
13	0	0	0	2	9	1	16
14	0	0	3	0	4	1	27
15	0	0	8	0	5	3	19	22	27
16	0	0	3	0	10	1	26
17	0	0	1	0	10	3	18	23	28
18	0	10	0	0	5	1	27
19	0	0	0	5	10	1	26
20	0	1	0	0	1	3	22	24	25
21	0	10	0	0	1	2	24	25
22	0	0	0	2	8	1	30
23	0	1	0	0	10	2	24	25
24	9	0	0	0	3	1	29
25	8	0	0	0	4	1	30
26	0	0	3	0	3	2	28	29
27	0	1	0	0	4	1	29
28	0	10	0	0	3	1	31
29	0	6	0	0	3	1	31
30	0	6	0	0	2	1	31
31	0	0	0	0	0	0
